%nprocshared=4
%mem=512Mb
%chk=chembl1836514.chk 
# opt freq=noraman m062x/6-311G(d,p) scf=maxcycle=1000 maxdisk=100Gb 

chembl1836514 


0  1
N           8.10945         0.33218        -3.36504
C           8.86620         1.14918        -2.77353
C           9.77840         2.13401        -2.06051
S           8.97330         3.16537        -0.80720
C           8.26049         1.92807         0.22800
N           8.86880         0.73455         0.42325
C           8.19675        -0.15137         1.19688
S           8.92267        -1.75227         1.47049
C          10.71081        -1.42230         1.29053
C          11.54109        -2.69019         1.36324
C          11.88853        -3.36909         0.19311
C          12.71191        -4.49244         0.25066
C          13.19275        -4.94192         1.47911
C          12.84171        -4.27238         2.64967
C          12.01872        -3.14841         2.59200
N           6.98514         0.12817         1.74718
C           6.44906         1.10267         1.61539
O           5.38851         1.26726         2.17920
N           6.98665         2.08793         0.85643
H          10.21517         2.79469        -2.81325
H          10.58787         1.57357        -1.58604
H          11.00751        -0.73001         2.08224
H          10.88159        -0.93322         0.32865
H          11.52866        -3.01635        -0.77113
H          12.98479        -5.01355        -0.66380
H          13.83961        -5.81482         1.52371
H          13.21342        -4.62531         3.60818
H          11.75741        -2.62504         3.50905
H           6.49440         2.95162         0.70303

