%nprocshared=4
%mem=512Mb
%chk=chembl1209036.chk 
# opt freq=noraman m062x/6-311G(d,p) scf=maxcycle=1000 maxdisk=100Gb 

chembl1209036 


0  1
C           7.28496        -0.87326         1.68816
N           6.00775        -0.57056         1.04706
C           5.61592         0.61427         0.43265
N           4.72628         0.63604        -0.26499
C           4.34904        -0.65977        -0.28159
C           3.34180        -1.30073        -0.99748
C           2.45744        -0.57650        -1.87420
N           1.74106        -0.00777        -2.55978
N           3.15388        -2.64222        -0.89992
C           3.92028        -3.39662        -0.05518
C           3.71009        -4.78976         0.01509
C           2.98155        -5.43817        -0.99062
C           2.84869        -6.82085        -0.99742
C           3.39311        -7.60029         0.02609
O           3.34296        -8.98329        -0.06167
C           3.20042        -9.67799        -1.32601
C           3.68833       -11.13897        -1.18592
C           3.76877       -11.81842        -2.57567
C           2.36238       -12.10538        -3.14691
N           1.58603       -12.93704        -2.20297
C           1.41775       -12.28851        -0.88306
C           2.79054       -11.97988        -0.24349
C           4.02217        -6.96350         1.11141
C           4.53640        -7.68941         2.36309
F           4.25020        -9.00025         2.45377
F           5.87289        -7.58435         2.47767
F           4.02435        -7.13771         3.48021
C           4.20303        -5.57520         1.06884
C           4.93879        -2.78349         0.70358
C           5.11936        -1.41702         0.53590
H           7.83719         0.05369         1.86614
H           7.87630        -1.52342         1.03680
H           7.10693        -1.37726         2.64125
H           6.20028         1.52080         0.49408
H           2.56286        -4.88450        -1.82709
H           2.32298        -7.28197        -1.82890
H           3.82446        -9.17273        -2.06883
H           2.15551        -9.63650        -1.64392
H           4.69619       -11.11027        -0.76389
H           4.31570       -12.76040        -2.48540
H           4.32939       -11.18914        -3.27130
H           2.45809       -12.63396        -4.09919
H           1.83284       -11.16602        -3.32918
H           2.04826       -13.83673        -2.08415
H           0.85631       -12.95702        -0.22485
H           0.84622       -11.36376        -0.99833
H           3.29575       -12.92331        -0.02124
H           2.64980       -11.46284         0.70869
H           4.70318        -5.11156         1.91242
H           5.61391        -3.33499         1.35007

