%nprocshared=4
%mem=512Mb
%chk=chembl3218470.chk 
# opt freq=noraman m062x/6-311G(d,p) scf=maxcycle=1000 maxdisk=100Gb 

chembl3218470 


0  1
N           2.56481        -2.25380        -0.97281
C           3.76404        -1.93626        -0.74687
C           5.20962        -1.55349        -0.47451
N           5.75914        -0.70402        -1.53288
C           5.64126         0.64097        -1.57273
O           5.08770         1.23621        -0.66731
C           6.15360         1.33684        -2.84282
N           5.39964         0.85620        -4.03432
C           5.44024        -0.38144        -4.59453
O           6.29612        -1.19984        -4.32513
C           4.37966        -0.67422        -5.64372
C           3.81507        -2.10550        -5.48165
C           2.97951        -2.54430        -6.65259
C           1.61178        -2.46851        -6.68041
C           1.06061        -3.08164        -7.84453
C           2.01223        -3.62024        -8.67171
S           3.61732        -3.37279        -8.04348
C           7.69561         1.11985        -2.96104
C           8.30454         1.89076        -4.15439
C           8.06387         3.40430        -3.99168
C           6.55841         3.70335        -3.83864
C           5.93569         2.87600        -2.68982
H           5.80579        -2.46712        -0.41251
H           5.26394        -1.03282         0.48548
H           6.17138        -1.16901        -2.32892
H           4.66594         1.47328        -4.34446
H           4.83057        -0.56202        -6.63279
H           3.56198         0.04772        -5.57546
H           3.23649        -2.16121        -4.55619
H           4.64027        -2.81325        -5.37388
H           1.00148        -2.02230        -5.90150
H          -0.00682        -3.13058        -8.03419
H           1.90058        -4.16113        -9.60364
H           7.94886         0.06351        -3.05236
H           8.17768         1.46040        -2.04083
H           7.86525         1.54289        -5.09279
H           9.37802         1.69568        -4.20788
H           8.46067         3.93778        -4.85826
H           8.60212         3.76513        -3.11206
H           6.04113         3.48939        -4.77638
H           6.42426         4.76745        -3.62916
H           4.86687         3.09697        -2.62904
H           6.38167         3.21517        -1.75010

