%nprocshared=4
%mem=512Mb
%chk=chembl1208908.chk 
# opt freq=noraman m062x/6-311G(d,p) scf=maxcycle=1000 maxdisk=100Gb 

chembl1208908 


0  1
C           0.97273        -0.38225         0.53877
C           2.47758        -0.42904         0.84496
O           3.11979        -1.22945        -0.17499
C           4.47086        -1.53866        -0.20304
C           5.34958        -0.94355         0.70734
C           6.70790        -1.24160         0.68612
C           7.22030        -2.19521        -0.20116
C           8.59735        -2.49568        -0.20260
C           9.06421        -3.70007        -0.76725
C          10.43293        -3.92132        -0.74027
C          11.32030        -3.02889        -0.24777
N          12.59115        -3.46908        -0.37287
C          12.44919        -4.48732        -0.84341
N          11.17374        -4.94171        -1.16169
C          10.74859        -6.28589        -1.54237
C          10.81730        -1.84406         0.28985
C          11.69000        -0.80550         0.77558
N          12.37815         0.03134         1.14129
N           9.48174        -1.60299         0.33450
C           6.33086        -2.79016        -1.10671
C           4.97594        -2.44756        -1.15109
C           4.14619        -3.08427        -2.27681
F           2.87490        -2.66467        -2.40079
F           4.71272        -2.85609        -3.47705
F           4.08898        -4.42235        -2.14377
H           0.45229         0.22281         1.28405
H           0.54888        -1.38908         0.55245
H           0.79709         0.05467        -0.44688
H           2.64370        -0.88612         1.82477
H           2.89155         0.58307         0.82872
H           4.99269        -0.23007         1.44423
H           7.35227        -0.75120         1.41223
H           8.40303        -4.46494        -1.16338
H          13.33016        -5.10215        -0.95976
H          11.62579        -6.91205        -1.72633
H          10.14383        -6.23364        -2.45102
H          10.15582        -6.72566        -0.73506
H           6.69524        -3.48536        -1.85664

