%nprocshared=4
%mem=512Mb
%chk=chembl3822851.chk 
# opt freq=noraman m062x/6-311G(d,p) scf=maxcycle=1000 maxdisk=100Gb 

chembl3822851 


0  1
N           7.00696        -2.03264         4.58200
C           7.00113        -1.46237         3.59166
C           6.93781        -0.73614         2.35706
C           6.33741         0.45912         2.22363
C           5.65526         1.21651         3.34745
C           4.69462         2.29588         2.80538
C           3.97713         3.07484         3.93292
N           4.90508         3.72142         4.88969
C           5.64341         4.79781         4.47868
O           5.48352         5.31276         3.38843
C           6.80601         5.22755         5.36281
N           7.45414         4.50951         5.91030
C           7.46307         3.45342         6.26720
C           8.59669         2.55161         6.24991
C           9.90071         3.04729         6.36148
C          10.98778         2.17552         6.39116
C          10.78196         0.79991         6.31960
C           9.48832         0.29713         6.20416
C           8.40131         1.16833         6.16230
C           6.21907         3.05721         6.90378
C           6.25825         2.58683         8.21800
C           5.09582         2.19724         8.87593
C           3.86336         2.30555         8.24440
C           3.75876         2.87153         6.92472
C           4.99159         3.16983         6.22653
H           7.41575        -1.21250         1.50194
H           6.34237         0.94920         1.25233
H           6.42242         1.68549         3.96652
H           5.09246         0.53080         3.98548
H           3.94036         1.82232         2.17240
H           5.25027         2.99144         2.17240
H           3.32613         2.37326         4.45891
H           3.34013         3.84370         3.48626
H           6.39843         5.87041         6.14826
H           7.50217         5.80326         4.74665
H          10.07624         4.11817         6.43050
H          11.99724         2.56982         6.47849
H          11.62961         0.11961         6.35614
H           9.32548        -0.77678         6.15392
H           7.39807         0.75691         6.07941
H           7.21117         2.50765         8.73575
H           5.15364         1.80648         9.88879
H           2.95760         2.00025         8.76253
H           2.79126         3.15069         6.51983

