%nprocshared=4
%mem=512Mb
%chk=chembl3218469.chk 
# opt freq=noraman m062x/6-311G(d,p) scf=maxcycle=1000 maxdisk=100Gb 

chembl3218469 


0  1
N           5.43007         1.76200         2.46674
C           5.75817         1.34581         1.32255
C           6.15367         0.84412        -0.05668
N           6.55721        -0.56343        -0.01110
C           5.73218        -1.61674        -0.19179
O           4.55375        -1.44280        -0.43836
C           6.38189        -3.00974        -0.12430
N           7.37559        -3.19059        -1.21050
C           8.55286        -2.54315        -1.39562
O           9.04490        -1.78905        -0.58200
C           9.27699        -2.89492        -2.67830
C           8.46686        -2.49824        -3.92944
C           9.22814        -2.82071        -5.18202
C           9.97710        -1.91592        -5.88392
C          10.54587        -2.67007        -6.94455
C          10.08513        -3.94863        -6.76828
O           9.25907        -4.10495        -5.67477
C           5.26973        -4.08785        -0.32262
C           5.80425        -5.53421        -0.19028
C           6.48485        -5.75264         1.17653
C           7.56903        -4.68609         1.43651
C           6.99159        -3.25889         1.28916
H           6.99438         1.44051        -0.41924
H           5.30864         0.97031        -0.73896
H           7.53377        -0.75244         0.16153
H           7.08628        -3.82312        -1.94161
H           9.48008        -3.96913        -2.69792
H          10.24105        -2.37995        -2.69636
H           8.23139        -1.43209        -3.88969
H           7.51576        -3.03586        -3.93774
H          10.12196        -0.85964        -5.68227
H          11.20869        -2.30143        -7.72010
H          10.25597        -4.85970        -7.33013
H           4.80709        -3.97038        -1.30630
H           4.47895        -3.94226         0.41894
H           6.51226        -5.74921        -0.99408
H           4.97584        -6.23805        -0.29757
H           6.93397        -6.74845         1.20773
H           5.73387        -5.70929         1.96949
H           8.40039        -4.82700         0.74129
H           7.96938        -4.81488         2.44488
H           7.77806        -2.53419         1.50742
H           6.21782        -3.10879         2.04693

