%nprocshared=4
%mem=512Mb
%chk=chembl1208977.chk 
# opt freq=noraman m062x/6-311G(d,p) scf=maxcycle=1000 maxdisk=100Gb 

chembl1208977 


0  1
C           1.55565         0.05678        -1.85813
N           2.84991         0.00934        -1.18170
C           3.63507         1.05388        -0.70586
N           4.54971         0.83190        -0.07724
C           4.51895        -0.51403         0.02630
C           5.35352        -1.39732         0.71159
C           6.52945        -0.93743         1.40563
N           7.47560        -0.57888         1.93772
N           5.10339        -2.73426         0.72719
C           4.06128        -3.24821         0.00684
C           3.82389        -4.63360         0.00335
C           3.15473        -5.25188        -1.05596
C           2.98631        -6.62832        -1.07802
C           3.44057        -7.43080        -0.02527
O           3.36981        -8.81397        -0.14086
C           3.18580        -9.45944        -1.42504
C           3.65129       -10.90327        -1.44065
C           3.86925       -11.65593        -0.28593
C           4.31609       -12.97372        -0.41319
N           4.54607       -13.56520        -1.61069
C           4.33013       -12.82410        -2.72200
C           3.88775       -11.50726        -2.67593
C           4.02369        -6.81639         1.09926
C           4.39839        -7.55219         2.39362
F           4.08515        -8.85885         2.44625
F           5.71559        -7.46652         2.65202
F           3.77467        -6.99703         3.45088
C           4.25799        -5.43555         1.06693
C           3.21868        -2.39603        -0.73131
C           3.47954        -1.03748        -0.66336
H           1.29074         1.09419        -2.07831
H           0.78777        -0.38312        -1.21543
H           1.61391        -0.50819        -2.79209
H           3.37370         2.09072        -0.85861
H           2.83130        -4.69187        -1.92806
H           2.50634        -7.06241        -1.94994
H           3.77858        -8.91250        -2.16386
H           2.12932        -9.39615        -1.70266
H           3.70122       -11.23117         0.70132
H           4.50025       -13.59280         0.46163
H           4.52558       -13.32058        -3.67032
H           3.73259       -10.95203        -3.59887
H           4.73967        -4.97434         1.92670
H           2.34965        -2.75059        -1.27784

