%nprocshared=4
%mem=512Mb
%chk=chembl1209084.chk 
# opt freq=noraman m062x/6-311G(d,p) scf=maxcycle=1000 maxdisk=100Gb 

chembl1209084 


0  1
C           0.77622        -0.14861         1.48732
N           2.20318        -0.09821         1.87239
C           2.34853         0.20010         3.31666
C           2.91585        -1.32988         1.44500
C           4.44042        -1.21797         1.63270
O           5.05868        -2.41560         1.10671
C           6.40891        -2.70701         1.23126
C           7.29917        -1.72484         1.67619
C           8.65339        -2.00121         1.82110
C           9.15671        -3.28475         1.57984
C          10.53121        -3.54770         1.74863
C          11.00100        -4.87081         1.87582
C          12.36868        -5.04526         2.03352
C          13.25349        -4.02080         2.03016
N          14.52355        -4.45935         2.17194
C          14.38221        -5.57661         2.27713
N          13.11024        -6.13528         2.20033
C          12.68226        -7.47855         2.58192
C          12.74989        -2.73014         1.89218
C          13.61647        -1.58118         1.82902
N          14.29930        -0.66638         1.75600
N          11.41551        -2.50470         1.78081
C           8.25789        -4.26291         1.13203
C           6.90151        -3.98681         0.91625
C           6.05706        -5.12369         0.32173
F           4.78449        -4.82613         0.00561
F           6.60742        -5.58449        -0.81796
F           5.99975        -6.17780         1.15652
H           0.28505         0.79277         1.74853
H           0.27286        -0.96940         2.00644
H           0.68480        -0.30040         0.40796
H           1.77882         1.09865         3.56993
H           3.39590         0.38372         3.56768
H           1.97701        -0.63631         3.91571
H           2.71914        -1.50530         0.38315
H           2.54241        -2.19082         2.00723
H           4.68538        -1.13683         2.69474
H           4.81928        -0.34616         1.09160
H           6.95483        -0.72267         1.91333
H           9.30150        -1.20218         2.17333
H          10.34457        -5.73502         1.90594
H          15.25656        -6.15830         2.52314
H          13.55842        -8.11022         2.75242
H          12.07466        -7.91047         1.78262
H          12.09195        -7.42671         3.50030
H           8.61008        -5.25551         0.87090

