%nprocshared=4
%mem=512Mb
%chk=chembl1836509.chk 
# opt freq=noraman m062x/6-311G(d,p) scf=maxcycle=1000 maxdisk=100Gb 

chembl1836509 


0  1
N          -2.91576        -4.14058         1.00974
C          -1.78277        -3.98930         1.00786
C          -0.35391        -3.81264         1.01159
C           0.41666        -4.32755        -0.03109
C           1.80033        -4.15966        -0.02455
C           2.42050        -3.47851         1.02347
C           3.92716        -3.31000         1.03485
S           4.39964        -1.71789         0.27898
C           6.16984        -1.72354         0.37076
N           6.83450        -2.90638         0.40985
C           8.18348        -2.84403         0.50496
S           9.07381        -4.37571         0.55488
C          10.50701        -4.05520         1.63438
C          11.30012        -5.33315         1.83546
C          12.28609        -5.69933         0.91736
C          13.01257        -6.87498         1.09943
C          12.75563        -7.69045         2.19975
C          11.76968        -7.33097         3.11644
C          11.04276        -6.15554         2.93424
N           8.87010        -1.67436         0.55818
C           8.36893        -0.67737         0.52374
O           9.08571         0.29979         0.58357
N           7.01974        -0.56667         0.42589
C           1.64726        -2.96201         2.06431
C           0.26339        -3.12846         2.05881
H          -0.05742        -4.86261        -0.85102
H           2.39456        -4.56508        -0.84050
H           4.40202        -4.12003         0.47469
H           4.30701        -3.33408         2.05985
H          10.14325        -3.67549         2.59293
H          11.13127        -3.28522         1.17319
H          12.48954        -5.06933         0.05449
H          13.77966        -7.15626         0.38206
H          13.32284        -8.60718         2.34200
H          11.56679        -7.96818         3.97379
H          10.27242        -5.88351         3.65211
H           6.58745         0.34380         0.39598
H           2.12188        -2.42869         2.88474
H          -0.33115        -2.72412         2.87537

