%nprocshared=4
%mem=512Mb
%chk=chembl1208910.chk 
# opt freq=noraman m062x/6-311G(d,p) scf=maxcycle=1000 maxdisk=100Gb 

chembl1208910 


0  1
C           1.46750        -0.09786        -1.94092
N           2.79549        -0.13987        -1.33396
C           3.52508         0.91823        -0.80155
N           4.38134         0.73152        -0.08774
C           4.34948        -0.61301         0.03947
C           5.11299        -1.46642         0.83348
C           6.16813        -0.96862         1.67917
N           7.01622        -0.58042         2.33916
N           4.88058        -2.80487         0.85057
C           3.91946        -3.35977         0.05006
C           3.69096        -4.75194         0.09573
C           2.96819        -5.42658        -0.89354
C           2.76281        -6.79855        -0.81059
C           3.22464        -7.54855         0.27391
C           2.89421        -9.04481         0.22914
C           3.93956        -9.89243        -0.53287
C           5.29819        -9.97998         0.18940
O           6.19350       -10.78516        -0.57709
C           3.93842        -6.88470         1.29919
C           4.47608        -7.51056         2.59931
F           4.18198        -8.79713         2.83219
F           5.81694        -7.42830         2.65878
F           4.01099        -6.85174         3.67642
C           4.18669        -5.51255         1.16346
C           3.14308        -2.53156        -0.78635
C           3.38901        -1.16762        -0.73528
H           1.19366         0.93774        -2.15871
H           0.73689        -0.52445        -1.24764
H           1.46970        -0.67584        -2.86842
H           3.22779         1.94891        -0.92599
H           2.59324        -4.91741        -1.77503
H           2.22207        -7.29008        -1.61694
H           1.94431        -9.16427        -0.29806
H           2.69622        -9.46476         1.21258
H           4.08586        -9.47445        -1.53223
H           3.54274       -10.90241        -0.66259
H           5.16905       -10.43150         1.17673
H           5.72706        -8.98126         0.30454
H           5.86190       -11.70163        -0.57890
H           4.74473        -5.02243         1.95815
H           2.33578        -2.90291        -1.40870

