%nprocshared=4
%mem=512Mb
%chk=chembl1209037.chk 
# opt freq=noraman m062x/6-311G(d,p) scf=maxcycle=1000 maxdisk=100Gb 

chembl1209037 


0  1
C           1.68011         0.32466        -1.92147
N           2.90326         0.22264        -1.12964
C           3.67011         1.23897        -0.56967
N           4.48130         0.99166         0.17863
C           4.37772        -0.35073         0.28918
C           5.08456        -1.25751         1.07606
C           6.14416        -0.82763         1.95217
N           6.99577        -0.49228         2.63696
N           4.81231        -2.58878         1.03033
C           3.85108        -3.08144         0.19005
C           3.63499        -4.47681         0.12160
C           2.85835        -5.06291        -0.88661
C           2.73691        -6.44280        -0.98347
C           3.36421        -7.28939        -0.06709
O           3.30411        -8.66326        -0.25265
C           3.08121        -9.25185        -1.55696
C           3.34248       -10.76904        -1.50603
C           3.41928       -11.38258        -2.93360
C           2.10247       -11.23422        -3.74306
C           0.99231       -12.15922        -3.19821
N           1.45000       -13.56487        -3.21027
C           2.66131       -13.76989        -2.38581
C           3.82071       -12.87893        -2.88706
C           4.08167        -6.72859         1.00329
C           4.75471        -7.56042         2.10520
F           4.26889        -8.80423         2.26826
F           6.07677        -7.68453         1.89018
F           4.62512        -6.98075         3.31436
C           4.23207        -5.33627         1.05826
C           3.11020        -2.19150        -0.61606
C           3.41068        -0.84145        -0.51784
H           1.49652         1.36899        -2.18492
H           0.83667        -0.05393        -1.33818
H           1.78491        -0.26661        -2.83482
H           3.47950         2.28405        -0.76635
H           2.37776        -4.47904        -1.66187
H           2.15401        -6.84509        -1.80649
H           3.76999        -8.78739        -2.26912
H           2.04876        -9.06157        -1.85977
H           2.56519       -11.25095        -0.90963
H           4.29268       -10.94125        -0.99409
H           4.20633       -10.84916        -3.47305
H           2.29628       -11.49866        -4.78566
H           1.75468       -10.19994        -3.74852
H           0.10193       -12.06526        -3.82588
H           0.72611       -11.86608        -2.17904
H           1.63792       -13.85241        -4.16893
H           2.96137       -14.81947        -2.44547
H           2.43735       -13.53686        -1.34132
H           4.10453       -13.20283        -3.89183
H           4.69724       -13.01673        -2.24932
H           4.82781        -4.92467         1.86929
H           2.31260        -2.50074        -1.28105

