%nprocshared=4
%mem=512Mb
%chk=chembl3264586.chk 
# opt freq=noraman m062x/6-311G(d,p) scf=maxcycle=1000 maxdisk=100Gb 

chembl3264586 


0  1
N           1.14767         0.29711         1.46786
C           2.06465         0.05443         0.83692
C           3.26041        -0.21400         0.02315
C           2.90475        -0.49257        -1.46014
C           2.19146        -1.81289        -1.71956
N           2.05545        -2.13989        -3.01695
O           1.78464        -2.56377        -0.85587
N           4.06630        -1.28870         0.61191
C           5.40253        -1.39744         0.46020
O           6.02679        -0.63174        -0.24846
C           6.05274        -2.64102         1.04640
C           5.87533        -3.84103         0.09925
C           6.14181        -5.05340         0.99576
C           5.65889        -4.60224         2.38334
N           5.61005        -3.13289         2.37112
C           5.28645        -2.41464         3.47834
O           4.95886        -2.94501         4.52320
O           5.31561        -1.08246         3.26608
C           4.79026        -0.16647         4.25972
C           5.91961         0.72707         4.73035
C           6.50101         1.63542         3.84945
C           7.54923         2.45303         4.26587
C           8.03109         2.37726         5.58538
C           9.18011         3.23437         6.03717
C           9.24979         3.70740         7.35990
C          10.33106         4.48117         7.77241
C          11.35915         4.78647         6.88600
C          11.31394         4.32338         5.56860
C          12.43553         4.62537         4.57792
F          13.48107         5.27297         5.12441
F          12.93308         3.50057         4.03318
F          12.00300         5.38948         3.55959
C          10.22159         3.55987         5.14891
C           7.43049         1.46141         6.46974
C           6.38840         0.64355         6.03909
H           3.85729         0.70221         0.05269
H           2.29150         0.32470        -1.84831
H           3.82970        -0.48243        -2.04295
H           2.40142        -1.52448        -3.73747
H           1.60571        -3.00703        -3.26801
H           3.58601        -1.96354         1.18775
H           7.11865        -2.41325         1.13274
H           6.54991        -3.79835        -0.75853
H           4.84426        -3.88294        -0.26456
H           7.21460        -5.25998         1.02500
H           5.61722        -5.94694         0.64886
H           6.35014        -4.94902         3.15777
H           4.65735        -4.99153         2.58379
H           4.34064        -0.70851         5.09624
H           4.00781         0.43159         3.78513
H           6.13984         1.70249         2.82544
H           7.97421         3.15508         3.55260
H           8.46041         3.48979         8.07512
H          10.37414         4.84643         8.79573
H          12.19654         5.38578         7.23423
H          10.20586         3.19459         4.12460
H           7.78380         1.35728         7.49233
H           5.94688        -0.06958         6.73117

