%nprocshared=4
%mem=512Mb
%chk=chembl1209857.chk 
# opt freq=noraman m062x/6-311G(d,p) scf=maxcycle=1000 maxdisk=100Gb 

chembl1209857 


0  1
N           4.47987         1.61479        -3.61815
C           4.70151         1.21460        -2.57038
C           4.99934         0.71904        -1.25107
N           5.60809        -0.49335        -1.15727
C           5.95311        -1.01427         0.06044
C           6.57604        -2.28073         0.13150
C           7.16021        -2.76010         1.31151
C           7.71921        -4.03051         1.36886
C           7.70186        -4.87683         0.25774
O           8.18424        -6.17298         0.36979
C           8.49390        -6.81177         1.63487
C           8.76606        -8.30157         1.37760
O           9.87056        -8.42460         0.48454
C           7.16637        -4.40547        -0.95455
C           7.07682        -5.24564        -2.23791
F           7.85742        -6.34019        -2.28082
F           5.81699        -5.66812        -2.45046
F           7.41844        -4.52981        -3.32604
C           6.62218        -3.11496        -0.99708
C           5.65374        -0.29274         1.23614
C           5.01432         0.92665         1.08871
N           4.57774         1.80278         1.98511
C           4.02867         2.77026         1.15274
N           4.05925         2.64510         0.02861
C           4.68007         1.45402        -0.11046
H           7.22251        -2.15693         2.20890
H           8.16158        -4.34935         2.30785
H           7.64084        -6.70884         2.31151
H           9.37698        -6.33929         2.07558
H           7.88084        -8.76143         0.92964
H           8.99234        -8.80714         2.32019
H           9.67901        -7.84421        -0.27803
H           6.17943        -2.78511        -1.93404
H           5.85135        -0.66140         2.23610
H           4.58181         1.74832         2.99531
H           3.52779         3.64644         1.53872

