%nprocshared=4
%mem=512Mb
%chk=chembl200151.chk 
# opt freq=noraman m062x/6-311G(d,p) scf=maxcycle=1000 maxdisk=100Gb 

chembl200151 


0  1
N           8.09857        -3.11739        -1.00556
C           7.26563        -2.23075        -0.67374
C           6.26159        -1.16196        -0.27375
N           6.60122        -0.54299         1.01734
C           5.82589         0.39799         1.60027
O           4.81265         0.76674         1.03662
C           6.21454         0.92258         2.99566
N           7.67244         1.02624         3.25725
C           8.66167         0.11684         3.39110
O           9.78221         0.50010         3.66419
O           8.30262        -1.18301         3.25739
C           9.37929        -2.14590         3.03968
C           9.11637        -3.47226         3.72840
C           9.38167        -4.66645         3.05349
C           9.27326        -5.88841         3.71440
C           8.90143        -5.92401         5.05645
C           8.63517        -4.73663         5.73560
C           8.74602        -3.51389         5.07478
C           5.47585         0.06946         4.06634
C           5.63603         0.63750         5.49738
C           5.15488         2.10246         5.57924
C           5.87039         2.97907         4.53369
C           5.67933         2.38527         3.11647
H           5.27149        -1.62026        -0.20223
H           6.24211        -0.38980        -1.04741
H           7.39929        -0.89888         1.51890
H           7.97376         1.97899         3.38920
H          10.32330        -1.75977         3.43313
H           9.49793        -2.27898         1.96101
H           9.70249        -4.64619         2.01430
H           9.49741        -6.81287         3.18735
H           8.83126        -6.87679         5.57603
H           8.35850        -4.76365         6.78694
H           8.56710        -2.58912         5.61916
H           5.83338        -0.96288         4.04270
H           4.41112         0.03353         3.82361
H           6.68173         0.57439         5.80747
H           5.05584         0.02906         6.19485
H           5.34243         2.49836         6.57988
H           4.07594         2.14393         5.40878
H           6.93160         3.05910         4.77908
H           5.46075         3.99075         4.56143
H           6.18739         3.02448         2.38806
H           4.61369         2.42504         2.88119

