%nprocshared=4
%mem=512Mb
%chk=chembl3218472.chk 
# opt freq=noraman m062x/6-311G(d,p) scf=maxcycle=1000 maxdisk=100Gb 

chembl3218472 


0  1
N           7.69137        -2.38651        -0.54988
C           6.96014        -1.38812        -0.79187
C           6.07869        -0.18464        -1.08356
N           6.34722         0.94200        -0.19348
C           5.76323         1.14183         1.00556
O           4.93614         0.34880         1.41824
C           6.19078         2.40039         1.78215
N           7.63745         2.35038         2.12861
C           8.69523         2.34487         1.27347
O           8.58988         2.60108         0.08989
C          10.05705         2.15330         1.92184
C          10.47464         3.36235         2.77290
C          12.01595         3.31661         2.83548
C          12.47136         2.33409         1.73412
C          11.21334         2.02612         0.91128
C           5.34753         2.44642         3.09779
C           5.51609         3.74499         3.92005
C           5.22176         4.99709         3.06972
C           6.04600         4.98927         1.76580
C           5.82241         3.68183         0.96993
H           5.03139        -0.48516        -0.99194
H           6.26030         0.13387        -2.11287
H           7.06299         1.59424        -0.48703
H           7.83722         2.19384         3.10429
H          10.04194         1.25733         2.55081
H          10.02590         3.33307         3.76918
H          10.16105         4.28465         2.27837
H          12.35419         2.96375         3.81259
H          12.43106         4.31193         2.66410
H          12.84456         1.41394         2.19269
H          13.26258         2.75659         1.11132
H          11.25544         1.04091         0.44353
H          11.12081         2.78233         0.12401
H           5.59975         1.59180         3.73103
H           4.28568         2.35271         2.85131
H           6.52457         3.80080         4.33453
H           4.81983         3.72231         4.76296
H           5.45716         5.89351         3.64700
H           4.15714         5.03651         2.82762
H           7.10602         5.11469         1.99710
H           5.74620         5.84091         1.15091
H           6.40037         3.73823         0.04590
H           4.77474         3.62724         0.66529

